objective value:                                  -10
t_n_5                                               1 	(obj:-1)
t_n_254                                             1 	(obj:-1)
t_n_359                                             1 	(obj:-1)
t_n_447                                             1 	(obj:-1)
t_n_485                                             1 	(obj:-1)
t_n_525                                             1 	(obj:-1)
t_n_813                                             1 	(obj:-1)
t_n_828                                             1 	(obj:-1)
t_n_863                                             1 	(obj:-1)
t_n_874                                             1 	(obj:-1)
